NAME : rnd18_20.tsp
TYPE : TSP
DIMENSION : 20
EDGE_WEIGHT_TYPE : EUC_2D
NODE_COORD_SECTION
0 507 59
1 92 678
2 416 205
3 745 215
4 245 754
5 935 527
6 709 868
7 145 784
8 524 652
9 98 311
10 105 475
11 868 884
12 889 670
13 656 328
14 667 430
15 968 195
16 236 806
17 291 738
18 990 511
19 781 687
